644,292
681,346
677,377
681,346
387,257
681,136
782,93
681,136
735,300
751,309
351,406
415,599
505,648
415,448
245,89
237,336
415,448
681,706
505,648
491,780
417,770
891,406
937,489
921,406
927,67
545,673
681,526
729,371
735,300
751,309
808,279
817,139
910,91
817,139
1006,355
1155,481
1081,202
808,279
795,369
681,706
681,946
1155,481
